Route #1: 20 41 22 15
Route #2: 34 64 96 48 26 47 38
Route #3: 25 65 78 42 28
Route #4: 8 17
Route #5: 1 70 54
Route #6: 80 94 56 21
Route #7: 93 75
Route #8: 58 12 5
Route #9: 89 98 99 62 71
Route #10: 19 97 27
Route #11: 23 61 100
Route #12: 52 91 50
Route #13: 30 85 11 79
Route #14: 59 60 82
Route #15: 14 49 6 37 87
Route #16: 31 46 35
Route #17: 44 67 88 40
Route #18: 69 16 55 76
Route #19: 81 51 83
Route #20: 68 90 84 66
Route #21: 92 9 86
Route #22: 32 33 53 73 95 24
Route #23: 3 77 63
Route #24: 57 72 36 29 43 45 2 7
Route #25: 18 10 39
Route #26: 4 13 74
Cost 27591.0000
Time 16.0005